(set-logic ALL)
(set-option :produce-models true)
(declare-sort BoundSet 0)
(declare-sort UnboundSet 0)
(declare-fun IsGoingToHaveLunch (BoundSet BoundSet) Bool)
(declare-fun IsBelieve (BoundSet) Bool)
(declare-fun IsDitching (BoundSet BoundSet) Bool)
(declare-fun IsNewGirl (BoundSet) Bool)
(assert (not (=> (exists ((b BoundSet)) (exists ((a BoundSet)) (IsGoingToHaveLunch a b))) (exists ((c BoundSet)) (exists ((b BoundSet)) (and (IsBelieve c) (or (IsDitching a b) (IsNewGirl b))))))))
(check-sat)
(get-model)